
Gurobi 11.0.0 (win64) logging started Sat Jun 15 09:52:37 2024

Set parameter LogFile to value "./GurobiLog/stage_1_iter_10.log"
Gurobi Optimizer version 11.0.0 build v11.0.0rc2 (win64 - Windows 10.0 (18363.2))

CPU model: Intel(R) Core(TM) i7-8700 CPU @ 3.20GHz, instruction set [SSE2|AVX|AVX2]
Thread count: 6 physical cores, 12 logical processors, using up to 1 threads

Optimize a model with 1491 rows, 20460 columns and 67221 nonzeros
Coefficient statistics:
  Matrix range     [4e-03, 7e+03]
  Objective range  [1e-01, 2e+05]
  Bounds range     [1e+01, 1e+06]
  RHS range        [1e+00, 4e+04]
LP warm-start: use basis
Iteration    Objective       Primal Inf.    Dual Inf.      Time
       0    4.4870677e+04   7.415708e+03   0.000000e+00      0s
     134    4.7878518e+04   0.000000e+00   0.000000e+00      0s

Solved in 134 iterations and 0.02 seconds (0.02 work units)
Optimal objective  4.787851795e+04

Gurobi 11.0.0 (win64) logging started Sat Jun 15 10:50:58 2024

Set parameter LogFile to value "./GurobiLog/stage_1_iter_10.log"
Gurobi Optimizer version 11.0.0 build v11.0.0rc2 (win64 - Windows 10.0 (18363.2))

CPU model: Intel(R) Core(TM) i7-8700 CPU @ 3.20GHz, instruction set [SSE2|AVX|AVX2]
Thread count: 6 physical cores, 12 logical processors, using up to 1 threads

Optimize a model with 1491 rows, 20460 columns and 66504 nonzeros
Coefficient statistics:
  Matrix range     [7e-03, 7e+03]
  Objective range  [1e-01, 2e+05]
  Bounds range     [6e-01, 5e+05]
  RHS range        [1e+00, 1e+05]
LP warm-start: use basis
Iteration    Objective       Primal Inf.    Dual Inf.      Time
       0    4.8001781e+04   7.422107e+03   0.000000e+00      0s
     142    5.4472728e+04   0.000000e+00   0.000000e+00      0s

Solved in 142 iterations and 0.02 seconds (0.02 work units)
Optimal objective  5.447272774e+04
